20
587 233 220
85 77 62
94 63 32
83 75 45
95 95 54
76 76 30
113 66 44
108 71 61
118 62 37
93 58 48
60 32 29
97 75 59
105 56 35
67 58 53
96 51 37
91 52 32
73 70 32
96 80 22
94 82 66
95 76 73
64 29 23
thpack7_40